# Solution for model r3_t18_m4_8 Batch Number: 3
# Finished Task: 18 / 18
# Makespan: 745.0, Total Distance: 547.0, Total Time: 0.7789
# R O S F Batch
0 0 16 0.0 0.0 -1
1 1 15 0.0 0.0 -1
2 2 6 0.0 0.0 -1
3 0 7 216.0 245.0 0
4 2 19 320.0 357.0 0
5 1 17 323.0 354.0 0
6 2 18 66.0 105.0 0
7 0 12 293.0 323.0 0
8 0 20 521.0 558.0 2
9 2 4 244.0 275.0 0
10 1 -1 672.0 711.0 2
11 2 14 558.0 595.0 2
12 0 8 471.0 497.0 1
13 2 11 464.0 497.0 0
14 2 -1 641.0 672.0 2
15 1 5 245.0 280.0 0
16 0 3 137.0 165.0 0
17 1 10 386.0 413.0 0
18 2 9 105.0 131.0 0
19 2 13 380.0 412.0 0
20 0 -1 711.0 745.0 2
